p cnf 80 406
-19 -20 0
19 20 0
-21 -22 0
-21 -23 0
-21 -24 0
-22 -23 0
-22 -24 0
-23 -24 0
21 22 23 24 0
-19 -23 0
-20 -24 0
1 -21 0
2 -22 0
3 -19 0
3 -23 0
4 -20 0
4 -24 0
5 -21 0
6 -22 0
7 -19 0
7 -23 0
8 -20 0
8 -24 0
9 -21 0
10 -22 0
11 -19 0
11 -23 0
12 -20 0
12 -24 0
14 -21 -19 0
15 -21 -20 0
16 -22 -19 0
17 -22 -20 0
18 -19 -24 0
18 -23 -20 0
-25 -26 0
-25 -27 0
-25 -28 0
-25 -29 0
-25 -30 0
-25 -31 0
-25 -32 0
-26 -27 0
-26 -28 0
-26 -29 0
-26 -30 0
-26 -31 0
-26 -32 0
-27 -28 0
-27 -29 0
-27 -30 0
-27 -31 0
-27 -32 0
-28 -29 0
-28 -30 0
-28 -31 0
-28 -32 0
-29 -30 0
-29 -31 0
-29 -32 0
-30 -31 0
-30 -32 0
-31 -32 0
25 26 27 28 29 30 31 32 0
-33 -34 0
-33 -35 0
-33 -36 0
-33 -37 0
-33 -38 0
-33 -39 0
-33 -40 0
-34 -35 0
-34 -36 0
-34 -37 0
-34 -38 0
-34 -39 0
-34 -40 0
-35 -36 0
-35 -37 0
-35 -38 0
-35 -39 0
-35 -40 0
-36 -37 0
-36 -38 0
-36 -39 0
-36 -40 0
-37 -38 0
-37 -39 0
-37 -40 0
-38 -39 0
-38 -40 0
-39 -40 0
33 34 35 36 37 38 39 40 0
-41 -42 0
-41 -43 0
-41 -44 0
-41 -45 0
-41 -46 0
-41 -47 0
-41 -48 0
-42 -43 0
-42 -44 0
-42 -45 0
-42 -46 0
-42 -47 0
-42 -48 0
-43 -44 0
-43 -45 0
-43 -46 0
-43 -47 0
-43 -48 0
-44 -45 0
-44 -46 0
-44 -47 0
-44 -48 0
-45 -46 0
-45 -47 0
-45 -48 0
-46 -47 0
-46 -48 0
-47 -48 0
41 42 43 44 45 46 47 48 0
-49 -50 0
-49 -51 0
-49 -52 0
-49 -53 0
-49 -54 0
-49 -55 0
-49 -56 0
-50 -51 0
-50 -52 0
-50 -53 0
-50 -54 0
-50 -55 0
-50 -56 0
-51 -52 0
-51 -53 0
-51 -54 0
-51 -55 0
-51 -56 0
-52 -53 0
-52 -54 0
-52 -55 0
-52 -56 0
-53 -54 0
-53 -55 0
-53 -56 0
-54 -55 0
-54 -56 0
-55 -56 0
49 50 51 52 53 54 55 56 0
-57 -58 0
-57 -59 0
-57 -60 0
-57 -61 0
-57 -62 0
-57 -63 0
-57 -64 0
-58 -59 0
-58 -60 0
-58 -61 0
-58 -62 0
-58 -63 0
-58 -64 0
-59 -60 0
-59 -61 0
-59 -62 0
-59 -63 0
-59 -64 0
-60 -61 0
-60 -62 0
-60 -63 0
-60 -64 0
-61 -62 0
-61 -63 0
-61 -64 0
-62 -63 0
-62 -64 0
-63 -64 0
57 58 59 60 61 62 63 64 0
-65 -66 0
-65 -67 0
-65 -68 0
-65 -69 0
-65 -70 0
-65 -71 0
-65 -72 0
-66 -67 0
-66 -68 0
-66 -69 0
-66 -70 0
-66 -71 0
-66 -72 0
-67 -68 0
-67 -69 0
-67 -70 0
-67 -71 0
-67 -72 0
-68 -69 0
-68 -70 0
-68 -71 0
-68 -72 0
-69 -70 0
-69 -71 0
-69 -72 0
-70 -71 0
-70 -72 0
-71 -72 0
65 66 67 68 69 70 71 72 0
-73 -74 0
-73 -75 0
-73 -76 0
-73 -77 0
-73 -78 0
-73 -79 0
-73 -80 0
-74 -75 0
-74 -76 0
-74 -77 0
-74 -78 0
-74 -79 0
-74 -80 0
-75 -76 0
-75 -77 0
-75 -78 0
-75 -79 0
-75 -80 0
-76 -77 0
-76 -78 0
-76 -79 0
-76 -80 0
-77 -78 0
-77 -79 0
-77 -80 0
-78 -79 0
-78 -80 0
-79 -80 0
73 74 75 76 77 78 79 80 0
-25 -33 0
-26 -34 0
-27 -35 0
-28 -36 0
-29 -37 0
-30 -38 0
-31 -39 0
-32 -40 0
-25 -41 0
-26 -42 0
-27 -43 0
-28 -44 0
-29 -45 0
-30 -46 0
-31 -47 0
-32 -48 0
-1 -25 -49 0
-1 -26 -50 0
-1 -27 -51 0
-1 -28 -52 0
-1 -29 -53 0
-1 -30 -54 0
-1 -31 -55 0
-1 -32 -56 0
-2 -25 -57 0
-2 -26 -58 0
-2 -27 -59 0
-2 -28 -60 0
-2 -29 -61 0
-2 -30 -62 0
-2 -31 -63 0
-2 -32 -64 0
-3 -25 -65 0
-3 -26 -66 0
-3 -27 -67 0
-3 -28 -68 0
-3 -29 -69 0
-3 -30 -70 0
-3 -31 -71 0
-3 -32 -72 0
-4 -25 -73 0
-4 -26 -74 0
-4 -27 -75 0
-4 -28 -76 0
-4 -29 -77 0
-4 -30 -78 0
-4 -31 -79 0
-4 -32 -80 0
-33 -41 0
-34 -42 0
-35 -43 0
-36 -44 0
-37 -45 0
-38 -46 0
-39 -47 0
-40 -48 0
-5 -33 -49 0
-5 -34 -50 0
-5 -35 -51 0
-5 -36 -52 0
-5 -37 -53 0
-5 -38 -54 0
-5 -39 -55 0
-5 -40 -56 0
-6 -33 -57 0
-6 -34 -58 0
-6 -35 -59 0
-6 -36 -60 0
-6 -37 -61 0
-6 -38 -62 0
-6 -39 -63 0
-6 -40 -64 0
-7 -33 -65 0
-7 -34 -66 0
-7 -35 -67 0
-7 -36 -68 0
-7 -37 -69 0
-7 -38 -70 0
-7 -39 -71 0
-7 -40 -72 0
-8 -33 -73 0
-8 -34 -74 0
-8 -35 -75 0
-8 -36 -76 0
-8 -37 -77 0
-8 -38 -78 0
-8 -39 -79 0
-8 -40 -80 0
-9 -41 -49 0
-9 -42 -50 0
-9 -43 -51 0
-9 -44 -52 0
-9 -45 -53 0
-9 -46 -54 0
-9 -47 -55 0
-9 -48 -56 0
-10 -41 -57 0
-10 -42 -58 0
-10 -43 -59 0
-10 -44 -60 0
-10 -45 -61 0
-10 -46 -62 0
-10 -47 -63 0
-10 -48 -64 0
-11 -41 -65 0
-11 -42 -66 0
-11 -43 -67 0
-11 -44 -68 0
-11 -45 -69 0
-11 -46 -70 0
-11 -47 -71 0
-11 -48 -72 0
-12 -41 -73 0
-12 -42 -74 0
-12 -43 -75 0
-12 -44 -76 0
-12 -45 -77 0
-12 -46 -78 0
-12 -47 -79 0
-12 -48 -80 0
-13 -49 -57 0
-13 -50 -58 0
-13 -51 -59 0
-13 -52 -60 0
-13 -53 -61 0
-13 -54 -62 0
-13 -55 -63 0
-13 -56 -64 0
-14 -49 -65 0
-14 -50 -66 0
-14 -51 -67 0
-14 -52 -68 0
-14 -53 -69 0
-14 -54 -70 0
-14 -55 -71 0
-14 -56 -72 0
-15 -49 -73 0
-15 -50 -74 0
-15 -51 -75 0
-15 -52 -76 0
-15 -53 -77 0
-15 -54 -78 0
-15 -55 -79 0
-15 -56 -80 0
-16 -57 -65 0
-16 -58 -66 0
-16 -59 -67 0
-16 -60 -68 0
-16 -61 -69 0
-16 -62 -70 0
-16 -63 -71 0
-16 -64 -72 0
-17 -57 -73 0
-17 -58 -74 0
-17 -59 -75 0
-17 -60 -76 0
-17 -61 -77 0
-17 -62 -78 0
-17 -63 -79 0
-17 -64 -80 0
-18 -65 -73 0
-18 -66 -74 0
-18 -67 -75 0
-18 -68 -76 0
-18 -69 -77 0
-18 -70 -78 0
-18 -71 -79 0
-18 -72 -80 0
